c THIS FORMULA IS GENERATED BY CNF
c 
c atomics
c X_PI <= 70.62_1_s:1
c X_PI <= 63.52_2_n:2
c C_1_4:3
c X_PT <= 8.31_2_n:4
c X_PI <= 63.52_1_p:5
c X_PI <= 54.92_1_p:6
c X_PT <= 12.36_2_n:7
c X_PI <= 80.61_1_n:8
c X_PI <= 42.09_2_p:9
c X_PT <= 17.44_1_n:10
c X_PT <= 17.44_1_s:11
c X_PI <= 48.12_2_s:12
c X_PI <= 48.12_2_n:13
c X_PI <= 54.92_2_s:14
c C_2_2:15
c X_PT <= 14.55_2_p:16
c X_PI <= 54.92_2_p:17
c X_PT <= 17.44_1_p:18
c X_PT <= 14.55_1_n:19
c X_PT <= 14.55_1_p:20
c X_PT <= 14.55_2_n:21
c X_PI <= 63.52_2_s:22
c X_PI <= 70.62_1_p:23
c X_PT <= 12.36_1_p:24
c X_PI <= 48.12_2_p:25
c C_2_4:26
c X_PI <= 63.52_1_s:27
c X_PI <= 42.09_2_n:28
c X_PI <= 42.09_1_n:29
c C_1_3:30
c X_PT <= 12.36_1_s:31
c X_PI <= 48.12_1_p:32
c X_PT <= 8.31_1_s:33
c X_PI <= 80.61_1_s:34
c X_PT <= 17.44_2_n:35
c X_PT <= 14.55_2_s:36
c X_PI <= 63.52_1_n:37
c X_PI <= 80.61_1_p:38
c X_PI <= 80.61_2_s:39
c C_1_2:40
c X_PT <= 12.36_2_p:41
c X_PT <= 8.31_2_p:42
c X_PT <= 12.36_2_s:43
c X_PT <= 17.44_2_p:44
c X_PI <= 42.09_1_s:45
c C_2_3:46
c C_2_1:47
c X_PI <= 70.62_2_p:48
c X_PI <= 48.12_1_s:49
c C_1_1:50
c C_1_5:51
c X_PT <= 8.31_2_s:52
c X_PT <= 8.31_1_p:53
c X_PT <= 14.55_1_s:54
c X_PT <= 12.36_1_n:55
c X_PI <= 70.62_2_n:56
c X_PT <= 17.44_2_s:57
c X_PI <= 42.09_1_p:58
c X_PI <= 80.61_2_p:59
c X_PI <= 63.52_2_p:60
c X_PI <= 80.61_2_n:61
c X_PI <= 54.92_1_s:62
c X_PI <= 54.92_2_n:63
c X_PI <= 48.12_1_n:64
c X_PI <= 70.62_1_n:65
c X_PI <= 70.62_2_s:66
c X_PI <= 42.09_2_s:67
c X_PI <= 54.92_1_n:68
c C_2_5:69
c X_PT <= 8.31_1_n:70
c end atomics
p cnf 70 656
58 -58 -58 0
58 -58 -29 0
58 -58 45 0
58 29 -58 0
58 29 -29 0
58 29 45 0
58 -45 -58 0
58 -45 -29 0
58 -45 45 0
-29 -58 -58 0
-29 -58 -29 0
-29 -58 45 0
-29 29 -58 0
-29 29 -29 0
-29 29 45 0
-29 -45 -58 0
-29 -45 -29 0
-29 -45 45 0
-45 -58 -58 0
-45 -58 -29 0
-45 -58 45 0
-45 29 -58 0
-45 29 -29 0
-45 29 45 0
-45 -45 -58 0
-45 -45 -29 0
-45 -45 45 0
32 -32 -32 0
32 -32 -64 0
32 -32 49 0
32 64 -32 0
32 64 -64 0
32 64 49 0
32 -49 -32 0
32 -49 -64 0
32 -49 49 0
-64 -32 -32 0
-64 -32 -64 0
-64 -32 49 0
-64 64 -32 0
-64 64 -64 0
-64 64 49 0
-64 -49 -32 0
-64 -49 -64 0
-64 -49 49 0
-49 -32 -32 0
-49 -32 -64 0
-49 -32 49 0
-49 64 -32 0
-49 64 -64 0
-49 64 49 0
-49 -49 -32 0
-49 -49 -64 0
-49 -49 49 0
6 -6 -6 0
6 -6 -68 0
6 -6 62 0
6 68 -6 0
6 68 -68 0
6 68 62 0
6 -62 -6 0
6 -62 -68 0
6 -62 62 0
-68 -6 -6 0
-68 -6 -68 0
-68 -6 62 0
-68 68 -6 0
-68 68 -68 0
-68 68 62 0
-68 -62 -6 0
-68 -62 -68 0
-68 -62 62 0
-62 -6 -6 0
-62 -6 -68 0
-62 -6 62 0
-62 68 -6 0
-62 68 -68 0
-62 68 62 0
-62 -62 -6 0
-62 -62 -68 0
-62 -62 62 0
5 -5 -5 0
5 -5 -37 0
5 -5 27 0
5 37 -5 0
5 37 -37 0
5 37 27 0
5 -27 -5 0
5 -27 -37 0
5 -27 27 0
-37 -5 -5 0
-37 -5 -37 0
-37 -5 27 0
-37 37 -5 0
-37 37 -37 0
-37 37 27 0
-37 -27 -5 0
-37 -27 -37 0
-37 -27 27 0
-27 -5 -5 0
-27 -5 -37 0
-27 -5 27 0
-27 37 -5 0
-27 37 -37 0
-27 37 27 0
-27 -27 -5 0
-27 -27 -37 0
-27 -27 27 0
23 -23 -23 0
23 -23 -65 0
23 -23 1 0
23 65 -23 0
23 65 -65 0
23 65 1 0
23 -1 -23 0
23 -1 -65 0
23 -1 1 0
-65 -23 -23 0
-65 -23 -65 0
-65 -23 1 0
-65 65 -23 0
-65 65 -65 0
-65 65 1 0
-65 -1 -23 0
-65 -1 -65 0
-65 -1 1 0
-1 -23 -23 0
-1 -23 -65 0
-1 -23 1 0
-1 65 -23 0
-1 65 -65 0
-1 65 1 0
-1 -1 -23 0
-1 -1 -65 0
-1 -1 1 0
38 -38 -38 0
38 -38 -8 0
38 -38 34 0
38 8 -38 0
38 8 -8 0
38 8 34 0
38 -34 -38 0
38 -34 -8 0
38 -34 34 0
-8 -38 -38 0
-8 -38 -8 0
-8 -38 34 0
-8 8 -38 0
-8 8 -8 0
-8 8 34 0
-8 -34 -38 0
-8 -34 -8 0
-8 -34 34 0
-34 -38 -38 0
-34 -38 -8 0
-34 -38 34 0
-34 8 -38 0
-34 8 -8 0
-34 8 34 0
-34 -34 -38 0
-34 -34 -8 0
-34 -34 34 0
53 -53 -53 0
53 -53 -70 0
53 -53 33 0
53 70 -53 0
53 70 -70 0
53 70 33 0
53 -33 -53 0
53 -33 -70 0
53 -33 33 0
-70 -53 -53 0
-70 -53 -70 0
-70 -53 33 0
-70 70 -53 0
-70 70 -70 0
-70 70 33 0
-70 -33 -53 0
-70 -33 -70 0
-70 -33 33 0
-33 -53 -53 0
-33 -53 -70 0
-33 -53 33 0
-33 70 -53 0
-33 70 -70 0
-33 70 33 0
-33 -33 -53 0
-33 -33 -70 0
-33 -33 33 0
24 -24 -24 0
24 -24 -55 0
24 -24 31 0
24 55 -24 0
24 55 -55 0
24 55 31 0
24 -31 -24 0
24 -31 -55 0
24 -31 31 0
-55 -24 -24 0
-55 -24 -55 0
-55 -24 31 0
-55 55 -24 0
-55 55 -55 0
-55 55 31 0
-55 -31 -24 0
-55 -31 -55 0
-55 -31 31 0
-31 -24 -24 0
-31 -24 -55 0
-31 -24 31 0
-31 55 -24 0
-31 55 -55 0
-31 55 31 0
-31 -31 -24 0
-31 -31 -55 0
-31 -31 31 0
20 -20 -20 0
20 -20 -19 0
20 -20 54 0
20 19 -20 0
20 19 -19 0
20 19 54 0
20 -54 -20 0
20 -54 -19 0
20 -54 54 0
-19 -20 -20 0
-19 -20 -19 0
-19 -20 54 0
-19 19 -20 0
-19 19 -19 0
-19 19 54 0
-19 -54 -20 0
-19 -54 -19 0
-19 -54 54 0
-54 -20 -20 0
-54 -20 -19 0
-54 -20 54 0
-54 19 -20 0
-54 19 -19 0
-54 19 54 0
-54 -54 -20 0
-54 -54 -19 0
-54 -54 54 0
18 -18 -18 0
18 -18 -10 0
18 -18 11 0
18 10 -18 0
18 10 -10 0
18 10 11 0
18 -11 -18 0
18 -11 -10 0
18 -11 11 0
-10 -18 -18 0
-10 -18 -10 0
-10 -18 11 0
-10 10 -18 0
-10 10 -10 0
-10 10 11 0
-10 -11 -18 0
-10 -11 -10 0
-10 -11 11 0
-11 -18 -18 0
-11 -18 -10 0
-11 -18 11 0
-11 10 -18 0
-11 10 -10 0
-11 10 11 0
-11 -11 -18 0
-11 -11 -10 0
-11 -11 11 0
9 -9 -9 0
9 -9 -28 0
9 -9 67 0
9 28 -9 0
9 28 -28 0
9 28 67 0
9 -67 -9 0
9 -67 -28 0
9 -67 67 0
-28 -9 -9 0
-28 -9 -28 0
-28 -9 67 0
-28 28 -9 0
-28 28 -28 0
-28 28 67 0
-28 -67 -9 0
-28 -67 -28 0
-28 -67 67 0
-67 -9 -9 0
-67 -9 -28 0
-67 -9 67 0
-67 28 -9 0
-67 28 -28 0
-67 28 67 0
-67 -67 -9 0
-67 -67 -28 0
-67 -67 67 0
25 -25 -25 0
25 -25 -13 0
25 -25 12 0
25 13 -25 0
25 13 -13 0
25 13 12 0
25 -12 -25 0
25 -12 -13 0
25 -12 12 0
-13 -25 -25 0
-13 -25 -13 0
-13 -25 12 0
-13 13 -25 0
-13 13 -13 0
-13 13 12 0
-13 -12 -25 0
-13 -12 -13 0
-13 -12 12 0
-12 -25 -25 0
-12 -25 -13 0
-12 -25 12 0
-12 13 -25 0
-12 13 -13 0
-12 13 12 0
-12 -12 -25 0
-12 -12 -13 0
-12 -12 12 0
17 -17 -17 0
17 -17 -63 0
17 -17 14 0
17 63 -17 0
17 63 -63 0
17 63 14 0
17 -14 -17 0
17 -14 -63 0
17 -14 14 0
-63 -17 -17 0
-63 -17 -63 0
-63 -17 14 0
-63 63 -17 0
-63 63 -63 0
-63 63 14 0
-63 -14 -17 0
-63 -14 -63 0
-63 -14 14 0
-14 -17 -17 0
-14 -17 -63 0
-14 -17 14 0
-14 63 -17 0
-14 63 -63 0
-14 63 14 0
-14 -14 -17 0
-14 -14 -63 0
-14 -14 14 0
60 -60 -60 0
60 -60 -2 0
60 -60 22 0
60 2 -60 0
60 2 -2 0
60 2 22 0
60 -22 -60 0
60 -22 -2 0
60 -22 22 0
-2 -60 -60 0
-2 -60 -2 0
-2 -60 22 0
-2 2 -60 0
-2 2 -2 0
-2 2 22 0
-2 -22 -60 0
-2 -22 -2 0
-2 -22 22 0
-22 -60 -60 0
-22 -60 -2 0
-22 -60 22 0
-22 2 -60 0
-22 2 -2 0
-22 2 22 0
-22 -22 -60 0
-22 -22 -2 0
-22 -22 22 0
48 -48 -48 0
48 -48 -56 0
48 -48 66 0
48 56 -48 0
48 56 -56 0
48 56 66 0
48 -66 -48 0
48 -66 -56 0
48 -66 66 0
-56 -48 -48 0
-56 -48 -56 0
-56 -48 66 0
-56 56 -48 0
-56 56 -56 0
-56 56 66 0
-56 -66 -48 0
-56 -66 -56 0
-56 -66 66 0
-66 -48 -48 0
-66 -48 -56 0
-66 -48 66 0
-66 56 -48 0
-66 56 -56 0
-66 56 66 0
-66 -66 -48 0
-66 -66 -56 0
-66 -66 66 0
59 -59 -59 0
59 -59 -61 0
59 -59 39 0
59 61 -59 0
59 61 -61 0
59 61 39 0
59 -39 -59 0
59 -39 -61 0
59 -39 39 0
-61 -59 -59 0
-61 -59 -61 0
-61 -59 39 0
-61 61 -59 0
-61 61 -61 0
-61 61 39 0
-61 -39 -59 0
-61 -39 -61 0
-61 -39 39 0
-39 -59 -59 0
-39 -59 -61 0
-39 -59 39 0
-39 61 -59 0
-39 61 -61 0
-39 61 39 0
-39 -39 -59 0
-39 -39 -61 0
-39 -39 39 0
42 -42 -42 0
42 -42 -4 0
42 -42 52 0
42 4 -42 0
42 4 -4 0
42 4 52 0
42 -52 -42 0
42 -52 -4 0
42 -52 52 0
-4 -42 -42 0
-4 -42 -4 0
-4 -42 52 0
-4 4 -42 0
-4 4 -4 0
-4 4 52 0
-4 -52 -42 0
-4 -52 -4 0
-4 -52 52 0
-52 -42 -42 0
-52 -42 -4 0
-52 -42 52 0
-52 4 -42 0
-52 4 -4 0
-52 4 52 0
-52 -52 -42 0
-52 -52 -4 0
-52 -52 52 0
41 -41 -41 0
41 -41 -7 0
41 -41 43 0
41 7 -41 0
41 7 -7 0
41 7 43 0
41 -43 -41 0
41 -43 -7 0
41 -43 43 0
-7 -41 -41 0
-7 -41 -7 0
-7 -41 43 0
-7 7 -41 0
-7 7 -7 0
-7 7 43 0
-7 -43 -41 0
-7 -43 -7 0
-7 -43 43 0
-43 -41 -41 0
-43 -41 -7 0
-43 -41 43 0
-43 7 -41 0
-43 7 -7 0
-43 7 43 0
-43 -43 -41 0
-43 -43 -7 0
-43 -43 43 0
16 -16 -16 0
16 -16 -21 0
16 -16 36 0
16 21 -16 0
16 21 -21 0
16 21 36 0
16 -36 -16 0
16 -36 -21 0
16 -36 36 0
-21 -16 -16 0
-21 -16 -21 0
-21 -16 36 0
-21 21 -16 0
-21 21 -21 0
-21 21 36 0
-21 -36 -16 0
-21 -36 -21 0
-21 -36 36 0
-36 -16 -16 0
-36 -16 -21 0
-36 -16 36 0
-36 21 -16 0
-36 21 -21 0
-36 21 36 0
-36 -36 -16 0
-36 -36 -21 0
-36 -36 36 0
44 -44 -44 0
44 -44 -35 0
44 -44 57 0
44 35 -44 0
44 35 -35 0
44 35 57 0
44 -57 -44 0
44 -57 -35 0
44 -57 57 0
-35 -44 -44 0
-35 -44 -35 0
-35 -44 57 0
-35 35 -44 0
-35 35 -35 0
-35 35 57 0
-35 -57 -44 0
-35 -57 -35 0
-35 -57 57 0
-57 -44 -44 0
-57 -44 -35 0
-57 -44 57 0
-57 35 -44 0
-57 35 -35 0
-57 35 57 0
-57 -57 -44 0
-57 -57 -35 0
-57 -57 57 0
-45 -49 -62 -27 -1 -34 -33 -31 -54 -11 0
-67 -12 -14 -22 -66 -39 -52 -43 -36 -57 0
58 32 68 37 65 8 53 55 19 10 0
9 25 63 2 56 61 42 7 21 35 0
58 32 6 5 23 8 53 24 20 10 0
9 25 17 60 48 61 42 41 16 35 0
58 64 68 37 65 8 53 24 19 10 0
9 13 63 2 56 61 42 41 21 35 0
29 64 68 37 65 8 70 55 19 10 0
28 13 63 2 56 61 4 7 21 35 0
58 32 68 37 65 8 70 55 19 18 0
9 25 63 2 56 61 4 7 21 44 0
-58 -50 0
-32 -50 0
-6 -50 0
-5 -50 0
-23 -50 0
-38 -50 0
-53 -50 0
-24 -50 0
-20 -50 0
-18 -50 0
-9 -47 0
-25 -47 0
-17 -47 0
-60 -47 0
-48 -47 0
-59 -47 0
-42 -47 0
-41 -47 0
-16 -47 0
-44 -47 0
-58 -40 0
-32 -40 0
-6 -40 0
-5 -40 0
-23 -40 0
-8 -40 0
-53 -40 0
-24 -40 0
-20 -40 0
-18 -40 0
-9 -15 0
-25 -15 0
-17 -15 0
-60 -15 0
-48 -15 0
-61 -15 0
-42 -15 0
-41 -15 0
-16 -15 0
-44 -15 0
-58 -30 0
-32 -30 0
-6 -30 0
-5 -30 0
-65 -30 0
-8 -30 0
-53 -30 0
-24 -30 0
-19 -30 0
-10 -30 0
-9 -46 0
-25 -46 0
-17 -46 0
-60 -46 0
-56 -46 0
-61 -46 0
-42 -46 0
-41 -46 0
-21 -46 0
-35 -46 0
-58 -3 0
-32 -3 0
-68 -3 0
-37 -3 0
-65 -3 0
-8 -3 0
-70 -3 0
-55 -3 0
-19 -3 0
-10 -3 0
-9 -26 0
-25 -26 0
-63 -26 0
-2 -26 0
-56 -26 0
-61 -26 0
-4 -26 0
-7 -26 0
-21 -26 0
-35 -26 0
-29 -51 0
-32 -51 0
-6 -51 0
-5 -51 0
-23 -51 0
-8 -51 0
-53 -51 0
-24 -51 0
-20 -51 0
-18 -51 0
-28 -69 0
-25 -69 0
-17 -69 0
-60 -69 0
-48 -69 0
-61 -69 0
-42 -69 0
-41 -69 0
-16 -69 0
-44 -69 0
50 47 0
40 15 0
30 46 0
3 26 0
51 69 0
